5
21
57
40	23
1	2	8	5	8	5	
2	3	8	12	7	6	6	5	
3	1	6	8	
4	5	6	12	8	6	10	4	5	4	11	3	
5	1	7	4	
6	1	7	4	
7	3	7	9	12	5	12	2	
8	2	22	4	9	4	
9	2	10	4	7	4	
10	1	16	2	
11	4	4	5	23	3	13	3	4	2	
12	5	4	8	5	6	21	3	6	2	5	2	
13	2	8	6	5	4	
14	3	4	4	10	3	11	2	
15	3	7	8	7	6	8	2	
16	4	7	10	8	5	7	5	7	4	
17	2	13	4	9	3	
18	5	4	11	12	3	5	2	5	2	4	2	
19	4	5	10	8	3	21	2	7	2	
20	2	4	6	8	2	
21	2	6	8	16	4	
